9
0 210 671 755 404 229 277 373 199
210 0 187 536 45 249 239 144 311
671 187 0 129 128 126 99 13 508
755 536 129 0 84 66 435 13 121
404 45 128 84 0 98 205 0 568
229 249 126 66 98 0 654 337 73
277 239 99 435 205 654 0 539 186
373 144 13 13 0 337 539 0 83
199 311 508 121 568 73 186 83 0